c File: data_files/evolved_graphs/g3698.col
c
c Auto generated graph
c
p edge 100 1890
e 1 15
e 1 16
e 1 17
e 1 21
e 1 22
e 1 25
e 1 28
e 1 29
e 1 30
e 1 33
e 1 35
e 1 38
e 1 41
e 1 46
e 1 53
e 1 57
e 1 62
e 1 63
e 1 65
e 1 67
e 1 68
e 1 72
e 1 73
e 1 79
e 1 81
e 1 82
e 1 84
e 1 86
e 1 87
e 1 88
e 1 89
e 1 90
e 1 91
e 1 92
e 1 94
e 1 95
e 1 96
e 1 97
e 1 99
e 2 3
e 2 5
e 2 6
e 2 16
e 2 20
e 2 27
e 2 28
e 2 29
e 2 30
e 2 32
e 2 33
e 2 34
e 2 38
e 2 39
e 2 40
e 2 46
e 2 47
e 2 48
e 2 55
e 2 56
e 2 60
e 2 62
e 2 64
e 2 66
e 2 72
e 2 74
e 2 77
e 2 79
e 2 82
e 2 87
e 2 89
e 2 92
e 2 94
e 2 95
e 2 96
e 2 97
e 3 8
e 3 10
e 3 11
e 3 17
e 3 20
e 3 21
e 3 32
e 3 33
e 3 35
e 3 36
e 3 37
e 3 41
e 3 42
e 3 43
e 3 44
e 3 45
e 3 46
e 3 49
e 3 53
e 3 55
e 3 56
e 3 59
e 3 61
e 3 62
e 3 66
e 3 70
e 3 71
e 3 75
e 3 77
e 3 82
e 3 84
e 3 87
e 3 88
e 3 91
e 3 92
e 3 94
e 4 8
e 4 9
e 4 10
e 4 11
e 4 12
e 4 13
e 4 16
e 4 18
e 4 20
e 4 25
e 4 28
e 4 30
e 4 32
e 4 33
e 4 36
e 4 41
e 4 42
e 4 43
e 4 44
e 4 46
e 4 49
e 4 51
e 4 53
e 4 58
e 4 61
e 4 62
e 4 67
e 4 73
e 4 74
e 4 76
e 4 79
e 4 81
e 4 84
e 4 90
e 4 91
e 4 94
e 4 95
e 4 98
e 5 6
e 5 7
e 5 8
e 5 12
e 5 13
e 5 15
e 5 17
e 5 22
e 5 23
e 5 24
e 5 30
e 5 32
e 5 33
e 5 37
e 5 40
e 5 42
e 5 43
e 5 51
e 5 53
e 5 56
e 5 58
e 5 63
e 5 66
e 5 67
e 5 68
e 5 72
e 5 74
e 5 75
e 5 78
e 5 79
e 5 82
e 5 83
e 5 84
e 5 87
e 5 88
e 5 89
e 5 90
e 5 94
e 5 98
e 6 9
e 6 11
e 6 28
e 6 30
e 6 31
e 6 32
e 6 33
e 6 34
e 6 36
e 6 37
e 6 42
e 6 43
e 6 45
e 6 46
e 6 47
e 6 48
e 6 52
e 6 54
e 6 58
e 6 62
e 6 64
e 6 65
e 6 72
e 6 73
e 6 76
e 6 77
e 6 78
e 6 82
e 6 84
e 6 85
e 6 86
e 6 87
e 6 89
e 6 95
e 6 97
e 6 98
e 7 8
e 7 12
e 7 15
e 7 25
e 7 26
e 7 33
e 7 35
e 7 37
e 7 38
e 7 42
e 7 45
e 7 47
e 7 49
e 7 50
e 7 51
e 7 53
e 7 55
e 7 58
e 7 59
e 7 60
e 7 63
e 7 66
e 7 70
e 7 74
e 7 76
e 7 77
e 7 79
e 7 80
e 7 81
e 7 83
e 7 84
e 7 85
e 7 87
e 7 91
e 7 95
e 7 96
e 7 97
e 7 98
e 7 99
e 8 10
e 8 21
e 8 29
e 8 31
e 8 32
e 8 33
e 8 34
e 8 38
e 8 41
e 8 43
e 8 44
e 8 46
e 8 49
e 8 51
e 8 52
e 8 56
e 8 58
e 8 61
e 8 66
e 8 67
e 8 70
e 8 71
e 8 72
e 8 73
e 8 74
e 8 75
e 8 81
e 8 83
e 8 85
e 8 86
e 8 87
e 8 89
e 8 90
e 8 91
e 8 93
e 8 95
e 8 97
e 9 10
e 9 11
e 9 17
e 9 21
e 9 29
e 9 30
e 9 37
e 9 43
e 9 44
e 9 47
e 9 48
e 9 49
e 9 50
e 9 52
e 9 53
e 9 54
e 9 57
e 9 59
e 9 60
e 9 62
e 9 65
e 9 67
e 9 68
e 9 69
e 9 71
e 9 75
e 9 77
e 9 79
e 9 80
e 9 82
e 9 87
e 9 91
e 9 92
e 9 93
e 9 95
e 9 96
e 9 98
e 10 11
e 10 12
e 10 14
e 10 16
e 10 17
e 10 23
e 10 24
e 10 28
e 10 36
e 10 39
e 10 41
e 10 42
e 10 47
e 10 49
e 10 50
e 10 52
e 10 55
e 10 56
e 10 57
e 10 59
e 10 60
e 10 61
e 10 64
e 10 65
e 10 67
e 10 68
e 10 70
e 10 72
e 10 73
e 10 74
e 10 75
e 10 83
e 10 84
e 10 85
e 10 87
e 10 89
e 10 91
e 10 93
e 10 96
e 10 97
e 10 99
e 11 13
e 11 14
e 11 17
e 11 19
e 11 21
e 11 23
e 11 24
e 11 27
e 11 28
e 11 29
e 11 38
e 11 39
e 11 44
e 11 45
e 11 48
e 11 49
e 11 52
e 11 56
e 11 57
e 11 58
e 11 60
e 11 61
e 11 64
e 11 66
e 11 72
e 11 73
e 11 75
e 11 76
e 11 79
e 11 84
e 11 86
e 11 87
e 11 88
e 11 91
e 11 92
e 11 93
e 11 95
e 11 96
e 11 99
e 12 15
e 12 17
e 12 18
e 12 21
e 12 28
e 12 31
e 12 33
e 12 39
e 12 42
e 12 43
e 12 47
e 12 58
e 12 61
e 12 62
e 12 68
e 12 69
e 12 71
e 12 73
e 12 74
e 12 78
e 12 79
e 12 80
e 12 81
e 12 82
e 12 84
e 12 85
e 12 91
e 12 92
e 12 94
e 12 95
e 12 98
e 13 14
e 13 15
e 13 16
e 13 19
e 13 29
e 13 31
e 13 36
e 13 40
e 13 41
e 13 42
e 13 44
e 13 46
e 13 47
e 13 48
e 13 49
e 13 52
e 13 59
e 13 60
e 13 62
e 13 65
e 13 67
e 13 69
e 13 71
e 13 73
e 13 76
e 13 82
e 13 83
e 13 84
e 13 85
e 13 87
e 13 89
e 13 90
e 13 91
e 13 94
e 14 16
e 14 20
e 14 24
e 14 29
e 14 30
e 14 32
e 14 34
e 14 35
e 14 39
e 14 41
e 14 48
e 14 51
e 14 53
e 14 54
e 14 55
e 14 56
e 14 57
e 14 61
e 14 62
e 14 63
e 14 64
e 14 65
e 14 66
e 14 67
e 14 69
e 14 71
e 14 73
e 14 77
e 14 81
e 14 82
e 14 83
e 14 85
e 14 95
e 14 97
e 14 98
e 15 18
e 15 21
e 15 22
e 15 23
e 15 29
e 15 30
e 15 36
e 15 38
e 15 41
e 15 45
e 15 46
e 15 49
e 15 50
e 15 52
e 15 56
e 15 59
e 15 62
e 15 63
e 15 64
e 15 67
e 15 68
e 15 69
e 15 71
e 15 72
e 15 76
e 15 79
e 15 80
e 15 82
e 15 86
e 15 88
e 15 90
e 15 91
e 15 93
e 15 94
e 15 96
e 15 97
e 15 98
e 15 99
e 16 17
e 16 19
e 16 23
e 16 25
e 16 26
e 16 29
e 16 35
e 16 36
e 16 42
e 16 43
e 16 46
e 16 48
e 16 51
e 16 52
e 16 54
e 16 56
e 16 65
e 16 67
e 16 69
e 16 71
e 16 72
e 16 78
e 16 80
e 16 84
e 16 87
e 16 90
e 16 91
e 16 92
e 16 94
e 16 95
e 16 99
e 17 20
e 17 24
e 17 31
e 17 38
e 17 39
e 17 40
e 17 42
e 17 46
e 17 48
e 17 51
e 17 52
e 17 54
e 17 56
e 17 57
e 17 58
e 17 61
e 17 62
e 17 65
e 17 67
e 17 68
e 17 69
e 17 73
e 17 75
e 17 76
e 17 77
e 17 80
e 17 82
e 17 83
e 17 85
e 17 87
e 17 89
e 17 92
e 17 94
e 17 95
e 17 98
e 18 19
e 18 21
e 18 34
e 18 43
e 18 44
e 18 47
e 18 48
e 18 49
e 18 51
e 18 55
e 18 56
e 18 58
e 18 59
e 18 62
e 18 67
e 18 69
e 18 70
e 18 71
e 18 73
e 18 75
e 18 77
e 18 78
e 18 85
e 18 86
e 18 87
e 18 89
e 18 90
e 18 92
e 18 94
e 18 95
e 18 98
e 19 23
e 19 29
e 19 30
e 19 33
e 19 35
e 19 41
e 19 42
e 19 44
e 19 46
e 19 47
e 19 49
e 19 50
e 19 53
e 19 55
e 19 56
e 19 57
e 19 61
e 19 62
e 19 64
e 19 65
e 19 66
e 19 67
e 19 69
e 19 71
e 19 72
e 19 80
e 19 82
e 19 83
e 19 88
e 19 91
e 19 93
e 19 94
e 19 96
e 19 99
e 20 25
e 20 26
e 20 27
e 20 28
e 20 29
e 20 32
e 20 33
e 20 37
e 20 40
e 20 42
e 20 43
e 20 44
e 20 48
e 20 49
e 20 50
e 20 51
e 20 52
e 20 54
e 20 56
e 20 58
e 20 59
e 20 61
e 20 63
e 20 65
e 20 67
e 20 68
e 20 69
e 20 70
e 20 72
e 20 74
e 20 75
e 20 76
e 20 78
e 20 79
e 20 80
e 20 82
e 20 83
e 20 84
e 20 86
e 20 88
e 20 89
e 20 91
e 20 93
e 20 94
e 20 95
e 20 98
e 21 24
e 21 31
e 21 32
e 21 33
e 21 36
e 21 37
e 21 39
e 21 41
e 21 43
e 21 44
e 21 45
e 21 47
e 21 56
e 21 58
e 21 59
e 21 60
e 21 64
e 21 66
e 21 68
e 21 73
e 21 77
e 21 79
e 21 80
e 21 82
e 21 85
e 21 86
e 21 89
e 21 90
e 21 93
e 21 95
e 21 96
e 21 97
e 21 98
e 21 99
e 22 27
e 22 33
e 22 35
e 22 39
e 22 40
e 22 42
e 22 44
e 22 47
e 22 49
e 22 50
e 22 51
e 22 52
e 22 54
e 22 55
e 22 56
e 22 61
e 22 63
e 22 64
e 22 65
e 22 66
e 22 70
e 22 71
e 22 72
e 22 77
e 22 78
e 22 79
e 22 80
e 22 81
e 22 82
e 22 83
e 22 85
e 22 89
e 22 90
e 22 91
e 22 93
e 22 95
e 22 97
e 22 99
e 23 24
e 23 34
e 23 36
e 23 37
e 23 39
e 23 40
e 23 49
e 23 50
e 23 52
e 23 53
e 23 56
e 23 59
e 23 60
e 23 63
e 23 66
e 23 67
e 23 68
e 23 71
e 23 74
e 23 75
e 23 77
e 23 78
e 23 79
e 23 81
e 23 84
e 23 85
e 23 90
e 23 91
e 23 95
e 23 96
e 23 97
e 23 99
e 24 25
e 24 27
e 24 29
e 24 34
e 24 36
e 24 47
e 24 50
e 24 51
e 24 52
e 24 53
e 24 54
e 24 55
e 24 60
e 24 61
e 24 65
e 24 78
e 24 79
e 24 81
e 24 82
e 24 83
e 24 86
e 24 91
e 24 92
e 24 94
e 24 95
e 24 96
e 24 97
e 24 98
e 25 27
e 25 32
e 25 37
e 25 39
e 25 42
e 25 45
e 25 46
e 25 47
e 25 49
e 25 50
e 25 54
e 25 60
e 25 64
e 25 67
e 25 69
e 25 70
e 25 76
e 25 77
e 25 81
e 25 86
e 25 90
e 25 92
e 25 93
e 25 95
e 25 96
e 25 99
e 25 100
e 26 27
e 26 28
e 26 32
e 26 37
e 26 40
e 26 42
e 26 43
e 26 46
e 26 48
e 26 50
e 26 55
e 26 56
e 26 57
e 26 59
e 26 60
e 26 61
e 26 65
e 26 72
e 26 73
e 26 74
e 26 75
e 26 76
e 26 78
e 26 82
e 26 83
e 26 84
e 26 87
e 26 88
e 26 91
e 26 93
e 26 94
e 26 96
e 26 98
e 26 100
e 27 28
e 27 29
e 27 32
e 27 34
e 27 40
e 27 45
e 27 46
e 27 47
e 27 51
e 27 53
e 27 55
e 27 58
e 27 61
e 27 63
e 27 64
e 27 65
e 27 66
e 27 70
e 27 71
e 27 72
e 27 76
e 27 77
e 27 81
e 27 82
e 27 84
e 27 85
e 27 88
e 27 90
e 27 91
e 27 92
e 27 94
e 27 95
e 27 98
e 27 99
e 28 29
e 28 31
e 28 33
e 28 38
e 28 43
e 28 45
e 28 46
e 28 49
e 28 52
e 28 53
e 28 56
e 28 57
e 28 58
e 28 59
e 28 60
e 28 61
e 28 62
e 28 65
e 28 70
e 28 71
e 28 72
e 28 73
e 28 74
e 28 75
e 28 76
e 28 77
e 28 78
e 28 79
e 28 80
e 28 82
e 28 83
e 28 84
e 28 85
e 28 87
e 28 93
e 28 97
e 29 33
e 29 34
e 29 39
e 29 40
e 29 43
e 29 47
e 29 49
e 29 52
e 29 53
e 29 55
e 29 56
e 29 57
e 29 58
e 29 59
e 29 62
e 29 63
e 29 68
e 29 70
e 29 71
e 29 72
e 29 73
e 29 76
e 29 81
e 29 82
e 29 83
e 29 86
e 29 88
e 29 90
e 29 92
e 29 93
e 29 94
e 29 95
e 29 98
e 29 99
e 30 31
e 30 35
e 30 41
e 30 42
e 30 47
e 30 49
e 30 51
e 30 54
e 30 57
e 30 58
e 30 60
e 30 62
e 30 63
e 30 64
e 30 68
e 30 77
e 30 79
e 30 82
e 30 85
e 30 88
e 30 90
e 30 92
e 30 97
e 30 99
e 31 35
e 31 38
e 31 43
e 31 45
e 31 49
e 31 51
e 31 55
e 31 60
e 31 61
e 31 62
e 31 64
e 31 65
e 31 66
e 31 68
e 31 69
e 31 70
e 31 71
e 31 73
e 31 74
e 31 77
e 31 78
e 31 81
e 31 82
e 31 83
e 31 88
e 31 91
e 31 93
e 31 94
e 32 39
e 32 42
e 32 43
e 32 44
e 32 46
e 32 47
e 32 48
e 32 49
e 32 54
e 32 56
e 32 57
e 32 64
e 32 68
e 32 69
e 32 70
e 32 73
e 32 78
e 32 81
e 32 85
e 32 87
e 32 90
e 32 92
e 32 93
e 32 95
e 32 97
e 32 98
e 33 37
e 33 39
e 33 43
e 33 49
e 33 50
e 33 51
e 33 54
e 33 55
e 33 58
e 33 59
e 33 64
e 33 65
e 33 66
e 33 67
e 33 68
e 33 69
e 33 70
e 33 73
e 33 75
e 33 83
e 33 90
e 33 91
e 33 98
e 33 99
e 34 35
e 34 36
e 34 41
e 34 43
e 34 45
e 34 47
e 34 50
e 34 55
e 34 61
e 34 64
e 34 65
e 34 66
e 34 68
e 34 71
e 34 75
e 34 76
e 34 77
e 34 79
e 34 80
e 34 82
e 34 83
e 34 86
e 34 87
e 34 88
e 34 94
e 34 95
e 34 97
e 34 100
e 35 36
e 35 37
e 35 45
e 35 49
e 35 50
e 35 51
e 35 52
e 35 53
e 35 55
e 35 61
e 35 62
e 35 64
e 35 66
e 35 70
e 35 73
e 35 76
e 35 79
e 35 81
e 35 83
e 35 86
e 35 87
e 35 91
e 35 96
e 35 97
e 35 98
e 35 100
e 36 41
e 36 42
e 36 45
e 36 46
e 36 48
e 36 49
e 36 51
e 36 52
e 36 55
e 36 57
e 36 59
e 36 62
e 36 66
e 36 69
e 36 71
e 36 73
e 36 74
e 36 78
e 36 82
e 36 83
e 36 85
e 36 86
e 36 91
e 36 92
e 36 96
e 36 97
e 37 38
e 37 42
e 37 43
e 37 44
e 37 46
e 37 48
e 37 49
e 37 50
e 37 53
e 37 56
e 37 58
e 37 60
e 37 62
e 37 64
e 37 65
e 37 70
e 37 71
e 37 74
e 37 76
e 37 79
e 37 81
e 37 82
e 37 84
e 37 87
e 37 88
e 37 91
e 37 92
e 37 93
e 37 96
e 37 97
e 37 98
e 38 44
e 38 46
e 38 47
e 38 48
e 38 50
e 38 51
e 38 53
e 38 54
e 38 57
e 38 58
e 38 60
e 38 61
e 38 63
e 38 66
e 38 67
e 38 68
e 38 69
e 38 72
e 38 75
e 38 76
e 38 79
e 38 80
e 38 81
e 38 82
e 38 83
e 38 84
e 38 85
e 38 87
e 38 90
e 38 95
e 38 97
e 39 41
e 39 46
e 39 48
e 39 49
e 39 50
e 39 54
e 39 57
e 39 59
e 39 60
e 39 67
e 39 70
e 39 72
e 39 75
e 39 77
e 39 78
e 39 80
e 39 85
e 39 88
e 39 90
e 39 92
e 39 93
e 39 95
e 39 96
e 39 97
e 40 44
e 40 45
e 40 46
e 40 47
e 40 50
e 40 53
e 40 55
e 40 57
e 40 66
e 40 67
e 40 70
e 40 71
e 40 72
e 40 77
e 40 78
e 40 79
e 40 87
e 40 88
e 40 89
e 40 90
e 40 91
e 40 92
e 40 94
e 40 95
e 40 96
e 40 97
e 40 98
e 40 99
e 41 42
e 41 43
e 41 46
e 41 47
e 41 50
e 41 51
e 41 52
e 41 53
e 41 55
e 41 60
e 41 62
e 41 65
e 41 67
e 41 68
e 41 74
e 41 78
e 41 86
e 41 92
e 41 97
e 41 99
e 41 100
e 42 44
e 42 46
e 42 50
e 42 51
e 42 52
e 42 54
e 42 56
e 42 57
e 42 61
e 42 62
e 42 68
e 42 70
e 42 72
e 42 73
e 42 75
e 42 77
e 42 79
e 42 82
e 42 84
e 42 85
e 42 88
e 42 92
e 42 98
e 43 46
e 43 47
e 43 50
e 43 55
e 43 56
e 43 58
e 43 59
e 43 60
e 43 66
e 43 67
e 43 69
e 43 72
e 43 75
e 43 76
e 43 78
e 43 81
e 43 86
e 43 89
e 43 90
e 43 99
e 44 45
e 44 46
e 44 49
e 44 52
e 44 55
e 44 56
e 44 57
e 44 61
e 44 63
e 44 64
e 44 65
e 44 66
e 44 68
e 44 69
e 44 71
e 44 76
e 44 77
e 44 79
e 44 80
e 44 85
e 44 86
e 44 92
e 44 94
e 44 96
e 45 48
e 45 49
e 45 50
e 45 54
e 45 57
e 45 59
e 45 60
e 45 62
e 45 67
e 45 70
e 45 72
e 45 73
e 45 75
e 45 77
e 45 88
e 45 93
e 45 94
e 45 95
e 45 99
e 46 47
e 46 49
e 46 52
e 46 55
e 46 60
e 46 62
e 46 68
e 46 76
e 46 78
e 46 79
e 46 80
e 46 82
e 46 87
e 46 92
e 46 94
e 46 95
e 46 98
e 47 50
e 47 51
e 47 52
e 47 53
e 47 57
e 47 60
e 47 70
e 47 74
e 47 80
e 47 87
e 47 90
e 47 91
e 47 93
e 48 53
e 48 55
e 48 56
e 48 57
e 48 59
e 48 63
e 48 64
e 48 65
e 48 66
e 48 69
e 48 70
e 48 80
e 48 81
e 48 82
e 48 83
e 48 84
e 48 85
e 48 86
e 48 87
e 48 89
e 48 91
e 48 92
e 49 52
e 49 53
e 49 54
e 49 63
e 49 67
e 49 72
e 49 73
e 49 79
e 49 81
e 49 83
e 49 93
e 50 51
e 50 52
e 50 53
e 50 55
e 50 56
e 50 57
e 50 58
e 50 59
e 50 60
e 50 61
e 50 63
e 50 67
e 50 68
e 50 69
e 50 71
e 50 73
e 50 76
e 50 77
e 50 82
e 50 83
e 50 84
e 50 87
e 50 92
e 50 93
e 50 97
e 51 57
e 51 59
e 51 61
e 51 68
e 51 76
e 51 77
e 51 79
e 51 82
e 51 83
e 51 87
e 51 92
e 51 98
e 51 99
e 52 54
e 52 56
e 52 60
e 52 62
e 52 64
e 52 65
e 52 66
e 52 72
e 52 73
e 52 80
e 52 81
e 52 82
e 52 88
e 52 90
e 52 95
e 53 55
e 53 56
e 53 58
e 53 61
e 53 66
e 53 69
e 53 72
e 53 73
e 53 76
e 53 77
e 53 79
e 53 97
e 53 98
e 54 55
e 54 57
e 54 59
e 54 60
e 54 63
e 54 66
e 54 67
e 54 69
e 54 73
e 54 78
e 54 79
e 54 82
e 54 88
e 54 89
e 54 94
e 54 96
e 54 97
e 55 64
e 55 69
e 55 70
e 55 74
e 55 80
e 55 83
e 55 84
e 55 87
e 55 88
e 55 89
e 55 90
e 55 92
e 55 95
e 55 96
e 55 98
e 56 66
e 56 67
e 56 69
e 56 73
e 56 74
e 56 86
e 56 93
e 56 94
e 57 67
e 57 71
e 57 72
e 57 76
e 57 80
e 57 86
e 57 88
e 57 91
e 57 92
e 57 94
e 57 95
e 58 61
e 58 63
e 58 66
e 58 68
e 58 69
e 58 70
e 58 75
e 58 80
e 58 85
e 58 86
e 58 88
e 58 90
e 58 92
e 58 93
e 58 94
e 58 96
e 58 97
e 58 99
e 59 65
e 59 69
e 59 77
e 59 82
e 59 85
e 59 88
e 59 92
e 59 97
e 59 100
e 60 61
e 60 63
e 60 67
e 60 68
e 60 69
e 60 74
e 60 75
e 60 77
e 60 79
e 60 80
e 60 85
e 60 87
e 60 92
e 60 93
e 60 99
e 61 68
e 61 70
e 61 73
e 61 77
e 61 82
e 61 87
e 61 99
e 62 64
e 62 65
e 62 69
e 62 70
e 62 71
e 62 74
e 62 82
e 62 84
e 62 85
e 62 87
e 62 88
e 62 89
e 62 91
e 62 92
e 62 94
e 62 96
e 62 97
e 62 98
e 62 99
e 63 64
e 63 68
e 63 69
e 63 70
e 63 74
e 63 76
e 63 80
e 63 81
e 63 84
e 63 89
e 63 90
e 64 66
e 64 70
e 64 71
e 64 75
e 64 78
e 64 81
e 64 89
e 64 92
e 64 93
e 64 95
e 64 99
e 65 67
e 65 69
e 65 74
e 65 77
e 65 79
e 65 95
e 65 96
e 65 99
e 66 74
e 66 76
e 66 79
e 66 81
e 66 82
e 66 86
e 66 96
e 66 100
e 67 69
e 67 74
e 67 78
e 67 79
e 67 87
e 67 90
e 67 92
e 68 71
e 68 77
e 68 82
e 68 87
e 68 92
e 68 98
e 69 73
e 69 74
e 69 77
e 69 80
e 69 85
e 69 86
e 69 87
e 69 88
e 69 89
e 69 93
e 69 96
e 69 98
e 70 71
e 70 73
e 70 75
e 70 77
e 70 86
e 70 87
e 70 88
e 70 92
e 70 93
e 70 96
e 70 97
e 70 100
e 71 72
e 71 73
e 71 76
e 71 77
e 71 82
e 71 87
e 71 88
e 71 89
e 71 93
e 71 99
e 72 74
e 72 76
e 72 78
e 72 82
e 72 84
e 72 94
e 72 95
e 72 97
e 72 99
e 73 75
e 73 76
e 73 77
e 73 80
e 73 83
e 73 84
e 73 90
e 73 91
e 73 93
e 73 97
e 73 99
e 74 76
e 74 78
e 74 79
e 74 84
e 74 89
e 74 90
e 74 92
e 74 97
e 74 99
e 75 78
e 75 79
e 75 81
e 75 82
e 75 85
e 75 87
e 75 89
e 75 90
e 75 96
e 75 98
e 75 99
e 75 100
e 76 78
e 76 79
e 76 81
e 76 83
e 76 84
e 76 86
e 76 87
e 76 89
e 76 99
e 77 80
e 77 83
e 77 88
e 77 91
e 77 93
e 77 98
e 77 99
e 78 79
e 78 82
e 78 95
e 78 96
e 78 100
e 79 80
e 79 83
e 79 84
e 79 90
e 79 91
e 79 95
e 79 98
e 79 100
e 80 86
e 80 88
e 80 94
e 81 83
e 81 84
e 81 89
e 81 92
e 81 94
e 81 97
e 82 85
e 82 95
e 82 97
e 82 100
e 83 94
e 83 96
e 83 99
e 84 85
e 84 87
e 84 88
e 84 89
e 84 90
e 85 90
e 85 92
e 85 93
e 85 94
e 85 97
e 85 99
e 86 90
e 86 92
e 86 96
e 86 97
e 86 98
e 86 100
e 87 92
e 88 90
e 88 91
e 88 97
e 89 96
e 90 98
e 90 99
e 91 93
e 91 94
e 91 96
e 92 94
e 92 95
e 93 96
e 93 97
e 93 99
e 94 95
e 94 97
e 94 98
e 95 98
e 95 100
e 97 99
e 98 99
